certificates/rado_a6_c202_N34.cnf
c Rad2 upper bound instance: x1 + 6*x2 - x3 = 202, interval [1,34]
p cnf 34 244
1 3 34 0
-1 -3 -34 0
2 4 34 0
-2 -4 -34 0
3 5 34 0
-3 -5 -34 0
4 6 34 0
-4 -6 -34 0
1 5 33 0
-1 -5 -33 0
5 7 34 0
-5 -7 -34 0
2 6 33 0
-2 -6 -33 0
6 8 34 0
-6 -8 -34 0
3 7 33 0
-3 -7 -33 0
7 9 34 0
-7 -9 -34 0
4 8 33 0
-4 -8 -33 0
8 10 34 0
-8 -10 -34 0
5 9 33 0
-5 -9 -33 0
9 11 34 0
-9 -11 -34 0
6 10 33 0
-6 -10 -33 0
10 12 34 0
-10 -12 -34 0
1 11 32 0
-1 -11 -32 0
7 11 33 0
-7 -11 -33 0
11 13 34 0
-11 -13 -34 0
2 12 32 0
-2 -12 -32 0
8 12 33 0
-8 -12 -33 0
12 14 34 0
-12 -14 -34 0
3 13 32 0
-3 -13 -32 0
9 13 33 0
-9 -13 -33 0
13 15 34 0
-13 -15 -34 0
4 14 32 0
-4 -14 -32 0
10 14 33 0
-10 -14 -33 0
14 16 34 0
-14 -16 -34 0
5 15 32 0
-5 -15 -32 0
11 15 33 0
-11 -15 -33 0
15 17 34 0
-15 -17 -34 0
6 16 32 0
-6 -16 -32 0
12 16 33 0
-12 -16 -33 0
16 18 34 0
-16 -18 -34 0
1 17 31 0
-1 -17 -31 0
7 17 32 0
-7 -17 -32 0
13 17 33 0
-13 -17 -33 0
17 19 34 0
-17 -19 -34 0
2 18 31 0
-2 -18 -31 0
8 18 32 0
-8 -18 -32 0
14 18 33 0
-14 -18 -33 0
18 20 34 0
-18 -20 -34 0
3 19 31 0
-3 -19 -31 0
9 19 32 0
-9 -19 -32 0
15 19 33 0
-15 -19 -33 0
19 21 34 0
-19 -21 -34 0
4 20 31 0
-4 -20 -31 0
10 20 32 0
-10 -20 -32 0
16 20 33 0
-16 -20 -33 0
20 22 34 0
-20 -22 -34 0
5 21 31 0
-5 -21 -31 0
11 21 32 0
-11 -21 -32 0
17 21 33 0
-17 -21 -33 0
21 23 34 0
-21 -23 -34 0
6 22 31 0
-6 -22 -31 0
12 22 32 0
-12 -22 -32 0
18 22 33 0
-18 -22 -33 0
22 24 34 0
-22 -24 -34 0
1 23 30 0
-1 -23 -30 0
7 23 31 0
-7 -23 -31 0
13 23 32 0
-13 -23 -32 0
19 23 33 0
-19 -23 -33 0
23 25 34 0
-23 -25 -34 0
2 24 30 0
-2 -24 -30 0
8 24 31 0
-8 -24 -31 0
14 24 32 0
-14 -24 -32 0
20 24 33 0
-20 -24 -33 0
24 26 34 0
-24 -26 -34 0
3 25 30 0
-3 -25 -30 0
9 25 31 0
-9 -25 -31 0
15 25 32 0
-15 -25 -32 0
21 25 33 0
-21 -25 -33 0
25 27 34 0
-25 -27 -34 0
4 26 30 0
-4 -26 -30 0
10 26 31 0
-10 -26 -31 0
16 26 32 0
-16 -26 -32 0
22 26 33 0
-22 -26 -33 0
26 28 34 0
-26 -28 -34 0
5 27 30 0
-5 -27 -30 0
11 27 31 0
-11 -27 -31 0
17 27 32 0
-17 -27 -32 0
23 27 33 0
-23 -27 -33 0
27 29 34 0
-27 -29 -34 0
6 28 30 0
-6 -28 -30 0
12 28 31 0
-12 -28 -31 0
18 28 32 0
-18 -28 -32 0
24 28 33 0
-24 -28 -33 0
28 30 34 0
-28 -30 -34 0
1 29 0
-1 -29 0
7 29 30 0
-7 -29 -30 0
13 29 31 0
-13 -29 -31 0
19 29 32 0
-19 -29 -32 0
25 29 33 0
-25 -29 -33 0
29 31 34 0
-29 -31 -34 0
2 29 30 0
-2 -29 -30 0
8 30 0
-8 -30 0
14 30 31 0
-14 -30 -31 0
20 30 32 0
-20 -30 -32 0
26 30 33 0
-26 -30 -33 0
30 32 34 0
-30 -32 -34 0
3 29 31 0
-3 -29 -31 0
9 30 31 0
-9 -30 -31 0
15 31 0
-15 -31 0
21 31 32 0
-21 -31 -32 0
27 31 33 0
-27 -31 -33 0
31 33 34 0
-31 -33 -34 0
4 29 32 0
-4 -29 -32 0
10 30 32 0
-10 -30 -32 0
16 31 32 0
-16 -31 -32 0
22 32 0
-22 -32 0
28 32 33 0
-28 -32 -33 0
32 34 0
-32 -34 0
5 29 33 0
-5 -29 -33 0
11 30 33 0
-11 -30 -33 0
17 31 33 0
-17 -31 -33 0
23 32 33 0
-23 -32 -33 0
29 33 0
-29 -33 0
6 29 34 0
-6 -29 -34 0
12 30 34 0
-12 -30 -34 0
18 31 34 0
-18 -31 -34 0
24 32 34 0
-24 -32 -34 0
30 33 34 0
-30 -33 -34 0
