certificates/rado_a6_c202_N34.drat
-34 0
32 0
-22 0
20 0
24 0
-10 0
-30 0
-14 0
-33 0
8 0
6 0
12 0
0
